Route #1: 6 16 23 30 24 35 36 25 19 31 26 37 42 49 48 54 41 47 68 67 78 87 95 88 79 69 62 70 82 89 90 96 91 80 64 71 63 55 50 43 56 57 73 72 83 92 97 98 84 99 100 85 74 75 76 93 86 81 94 77 66 65 60 52 59 58 51 44 38 27 28 32 29 39 33 45 53 61 46 40 34 22 21 15 11 5 4 10 3 14 20 13 9 2 8 12 18 17 7 1
Cost 45299
